wcsp 100 3 501 512409557603043100
3 3 3 3 3 3 3 3 3 3 3 3 3 3 3 3 3 3 3 3 3 3 3 3 3 3 3 3 3 3 3 3 3 3 3 3 3 3 3 3 3 3 3 3 3 3 3 3 3 3 3 3 3 3 3 3 3 3 3 3 3 3 3 3 3 3 3 3 3 3 3 3 3 3 3 3 3 3 3 3 3 3 3 3 3 3 3 3 3 3 3 3 3 3 3 3 3 3 3 3
2 15 89 0 9
0 0 1
0 1 0
0 2 3
1 0 0
1 1 0
1 2 2
2 0 3
2 1 0
2 2 2
2 13 29 0 9
0 0 0
0 1 3
0 2 1
1 0 0
1 1 1
1 2 3
2 0 0
2 1 0
2 2 2
2 31 32 0 9
0 0 0
0 1 2
0 2 0
1 0 2
1 1 0
1 2 1
2 0 1
2 1 1
2 2 0
2 71 80 0 9
0 0 3
0 1 3
0 2 0
1 0 0
1 1 2
1 2 0
2 0 2
2 1 1
2 2 0
2 5 24 0 9
0 0 3
0 1 0
0 2 0
1 0 1
1 1 1
1 2 2
2 0 0
2 1 2
2 2 0
2 52 94 0 9
0 0 0
0 1 2
0 2 3
1 0 0
1 1 0
1 2 1
2 0 1
2 1 0
2 2 2
2 39 44 0 9
0 0 2
0 1 2
0 2 0
1 0 2
1 1 0
1 2 0
2 0 2
2 1 0
2 2 2
2 11 71 0 9
0 0 3
0 1 0
0 2 0
1 0 1
1 1 3
1 2 0
2 0 2
2 1 0
2 2 1
2 39 56 0 9
0 0 0
0 1 0
0 2 3
1 0 3
1 1 0
1 2 1
2 0 1
2 1 3
2 2 0
2 52 66 0 9
0 0 3
0 1 0
0 2 0
1 0 3
1 1 1
1 2 0
2 0 3
2 1 0
2 2 1
2 3 57 0 9
0 0 1
0 1 0
0 2 2
1 0 2
1 1 2
1 2 0
2 0 0
2 1 1
2 2 0
2 73 77 0 9
0 0 2
0 1 1
0 2 0
1 0 0
1 1 2
1 2 0
2 0 0
2 1 3
2 2 1
2 59 64 0 9
0 0 0
0 1 1
0 2 1
1 0 1
1 1 0
1 2 0
2 0 0
2 1 3
2 2 3
2 5 85 0 9
0 0 0
0 1 0
0 2 2
1 0 3
1 1 1
1 2 0
2 0 0
2 1 1
2 2 2
2 12 53 0 9
0 0 0
0 1 0
0 2 1
1 0 2
1 1 2
1 2 2
2 0 1
2 1 0
2 2 0
2 68 98 0 9
0 0 0
0 1 3
0 2 0
1 0 0
1 1 2
1 2 3
2 0 0
2 1 2
2 2 1
2 23 92 0 9
0 0 3
0 1 3
0 2 2
1 0 3
1 1 0
1 2 0
2 0 0
2 1 3
2 2 0
2 19 24 0 9
0 0 3
0 1 1
0 2 0
1 0 0
1 1 3
1 2 0
2 0 1
2 1 1
2 2 0
2 6 90 0 9
0 0 3
0 1 2
0 2 0
1 0 0
1 1 0
1 2 2
2 0 0
2 1 3
2 2 2
2 72 84 0 9
0 0 3
0 1 0
0 2 3
1 0 2
1 1 3
1 2 0
2 0 0
2 1 1
2 2 0
2 6 15 0 9
0 0 0
0 1 2
0 2 0
1 0 0
1 1 1
1 2 1
2 0 0
2 1 1
2 2 1
2 7 68 0 9
0 0 0
0 1 0
0 2 2
1 0 0
1 1 2
1 2 3
2 0 2
2 1 2
2 2 0
2 40 72 0 9
0 0 3
0 1 3
0 2 0
1 0 0
1 1 2
1 2 3
2 0 0
2 1 0
2 2 2
2 5 79 0 9
0 0 0
0 1 0
0 2 0
1 0 0
1 1 1
1 2 2
2 0 2
2 1 3
2 2 2
2 53 84 0 9
0 0 2
0 1 0
0 2 3
1 0 1
1 1 1
1 2 0
2 0 0
2 1 0
2 2 2
2 94 99 0 9
0 0 2
0 1 0
0 2 1
1 0 0
1 1 1
1 2 0
2 0 2
2 1 0
2 2 1
2 26 89 0 9
0 0 0
0 1 0
0 2 2
1 0 2
1 1 1
1 2 0
2 0 1
2 1 0
2 2 2
2 33 68 0 9
0 0 3
0 1 0
0 2 3
1 0 0
1 1 0
1 2 3
2 0 0
2 1 3
2 2 2
2 36 46 0 9
0 0 0
0 1 0
0 2 0
1 0 3
1 1 0
1 2 3
2 0 2
2 1 3
2 2 3
2 50 92 0 9
0 0 0
0 1 0
0 2 0
1 0 2
1 1 0
1 2 2
2 0 3
2 1 2
2 2 3
2 5 15 0 9
0 0 1
0 1 0
0 2 2
1 0 0
1 1 3
1 2 0
2 0 1
2 1 2
2 2 0
2 9 88 0 9
0 0 1
0 1 0
0 2 2
1 0 0
1 1 0
1 2 3
2 0 1
2 1 0
2 2 2
2 29 96 0 9
0 0 0
0 1 0
0 2 1
1 0 2
1 1 0
1 2 0
2 0 2
2 1 3
2 2 2
2 6 12 0 9
0 0 0
0 1 0
0 2 3
1 0 3
1 1 1
1 2 0
2 0 3
2 1 2
2 2 0
2 0 9 0 9
0 0 3
0 1 0
0 2 1
1 0 2
1 1 3
1 2 1
2 0 0
2 1 0
2 2 0
2 80 84 0 9
0 0 0
0 1 3
0 2 0
1 0 1
1 1 2
1 2 3
2 0 0
2 1 0
2 2 2
2 33 35 0 9
0 0 0
0 1 3
0 2 0
1 0 3
1 1 3
1 2 0
2 0 1
2 1 0
2 2 1
2 85 87 0 9
0 0 3
0 1 2
0 2 0
1 0 0
1 1 3
1 2 0
2 0 0
2 1 1
2 2 3
2 6 93 0 9
0 0 1
0 1 2
0 2 0
1 0 0
1 1 1
1 2 0
2 0 2
2 1 3
2 2 0
2 0 25 0 9
0 0 1
0 1 1
0 2 0
1 0 3
1 1 0
1 2 0
2 0 3
2 1 0
2 2 2
2 9 66 0 9
0 0 3
0 1 0
0 2 0
1 0 3
1 1 1
1 2 0
2 0 3
2 1 2
2 2 0
2 34 62 0 9
0 0 1
0 1 0
0 2 3
1 0 3
1 1 3
1 2 1
2 0 0
2 1 0
2 2 0
2 38 44 0 9
0 0 0
0 1 1
0 2 3
1 0 3
1 1 0
1 2 2
2 0 1
2 1 0
2 2 0
2 4 75 0 9
0 0 1
0 1 2
0 2 1
1 0 0
1 1 3
1 2 0
2 0 0
2 1 0
2 2 1
2 38 69 0 9
0 0 0
0 1 3
0 2 0
1 0 1
1 1 0
1 2 0
2 0 1
2 1 1
2 2 2
2 17 64 0 9
0 0 3
0 1 0
0 2 0
1 0 3
1 1 0
1 2 2
2 0 0
2 1 2
2 2 1
2 62 84 0 9
0 0 1
0 1 0
0 2 3
1 0 0
1 1 0
1 2 1
2 0 3
2 1 3
2 2 0
2 41 98 0 9
0 0 3
0 1 3
0 2 2
1 0 0
1 1 3
1 2 0
2 0 0
2 1 3
2 2 0
2 2 32 0 9
0 0 0
0 1 2
0 2 0
1 0 2
1 1 1
1 2 0
2 0 0
2 1 2
2 2 2
2 38 65 0 9
0 0 3
0 1 2
0 2 0
1 0 0
1 1 2
1 2 0
2 0 1
2 1 0
2 2 1
2 14 96 0 9
0 0 3
0 1 2
0 2 0
1 0 0
1 1 1
1 2 0
2 0 2
2 1 0
2 2 2
2 32 41 0 9
0 0 3
0 1 2
0 2 0
1 0 0
1 1 1
1 2 0
2 0 3
2 1 0
2 2 3
2 54 59 0 9
0 0 1
0 1 3
0 2 2
1 0 2
1 1 0
1 2 0
2 0 2
2 1 0
2 2 0
2 51 74 0 9
0 0 2
0 1 2
0 2 0
1 0 0
1 1 1
1 2 2
2 0 0
2 1 0
2 2 3
2 31 84 0 9
0 0 3
0 1 0
0 2 2
1 0 0
1 1 2
1 2 3
2 0 0
2 1 1
2 2 0
2 11 95 0 9
0 0 3
0 1 3
0 2 1
1 0 0
1 1 0
1 2 0
2 0 1
2 1 0
2 2 3
2 67 78 0 9
0 0 3
0 1 0
0 2 0
1 0 0
1 1 1
1 2 0
2 0 2
2 1 2
2 2 2
2 84 87 0 9
0 0 0
0 1 1
0 2 0
1 0 0
1 1 1
1 2 2
2 0 3
2 1 2
2 2 0
2 49 72 0 9
0 0 1
0 1 3
0 2 1
1 0 0
1 1 0
1 2 1
2 0 1
2 1 0
2 2 0
2 56 90 0 9
0 0 0
0 1 0
0 2 1
1 0 0
1 1 1
1 2 0
2 0 1
2 1 1
2 2 2
2 40 59 0 9
0 0 0
0 1 1
0 2 3
1 0 1
1 1 0
1 2 1
2 0 0
2 1 0
2 2 2
2 9 59 0 9
0 0 0
0 1 3
0 2 1
1 0 0
1 1 0
1 2 2
2 0 3
2 1 0
2 2 1
2 11 98 0 9
0 0 0
0 1 0
0 2 1
1 0 1
1 1 3
1 2 0
2 0 3
2 1 0
2 2 1
2 8 23 0 9
0 0 3
0 1 3
0 2 3
1 0 0
1 1 0
1 2 3
2 0 0
2 1 2
2 2 0
2 5 51 0 9
0 0 0
0 1 0
0 2 1
1 0 1
1 1 3
1 2 1
2 0 0
2 1 0
2 2 3
2 30 56 0 9
0 0 3
0 1 1
0 2 0
1 0 1
1 1 2
1 2 2
2 0 0
2 1 0
2 2 0
2 44 67 0 9
0 0 1
0 1 1
0 2 0
1 0 0
1 1 1
1 2 1
2 0 3
2 1 0
2 2 0
2 14 20 0 9
0 0 0
0 1 0
0 2 0
1 0 3
1 1 3
1 2 3
2 0 0
2 1 1
2 2 3
2 1 52 0 9
0 0 0
0 1 1
0 2 1
1 0 0
1 1 0
1 2 2
2 0 3
2 1 0
2 2 3
2 69 78 0 9
0 0 0
0 1 3
0 2 1
1 0 1
1 1 0
1 2 3
2 0 0
2 1 3
2 2 0
2 32 56 0 9
0 0 2
0 1 2
0 2 0
1 0 1
1 1 3
1 2 0
2 0 1
2 1 0
2 2 0
2 7 24 0 9
0 0 3
0 1 1
0 2 0
1 0 3
1 1 0
1 2 2
2 0 2
2 1 0
2 2 0
2 15 77 0 9
0 0 0
0 1 3
0 2 0
1 0 0
1 1 2
1 2 3
2 0 0
2 1 2
2 2 1
2 48 94 0 9
0 0 0
0 1 0
0 2 1
1 0 1
1 1 3
1 2 1
2 0 0
2 1 1
2 2 0
2 7 86 0 9
0 0 0
0 1 3
0 2 0
1 0 3
1 1 0
1 2 1
2 0 2
2 1 0
2 2 1
2 16 56 0 9
0 0 1
0 1 0
0 2 2
1 0 2
1 1 0
1 2 0
2 0 1
2 1 3
2 2 0
2 51 78 0 9
0 0 3
0 1 0
0 2 1
1 0 0
1 1 1
1 2 0
2 0 2
2 1 3
2 2 0
2 8 86 0 9
0 0 2
0 1 0
0 2 3
1 0 0
1 1 0
1 2 3
2 0 0
2 1 3
2 2 1
2 27 60 0 9
0 0 0
0 1 0
0 2 0
1 0 1
1 1 0
1 2 2
2 0 1
2 1 2
2 2 2
2 24 47 0 9
0 0 0
0 1 1
0 2 0
1 0 0
1 1 1
1 2 2
2 0 0
2 1 3
2 2 2
2 54 82 0 9
0 0 2
0 1 3
0 2 1
1 0 2
1 1 2
1 2 0
2 0 0
2 1 0
2 2 0
2 49 87 0 9
0 0 0
0 1 1
0 2 0
1 0 0
1 1 1
1 2 3
2 0 0
2 1 1
2 2 1
2 37 90 0 9
0 0 2
0 1 2
0 2 0
1 0 1
1 1 1
1 2 0
2 0 2
2 1 0
2 2 0
2 19 92 0 9
0 0 0
0 1 0
0 2 3
1 0 3
1 1 0
1 2 1
2 0 0
2 1 1
2 2 1
2 80 98 0 9
0 0 2
0 1 0
0 2 0
1 0 0
1 1 2
1 2 3
2 0 3
2 1 0
2 2 3
2 42 73 0 9
0 0 1
0 1 2
0 2 2
1 0 0
1 1 0
1 2 0
2 0 3
2 1 2
2 2 0
2 16 73 0 9
0 0 1
0 1 3
0 2 0
1 0 0
1 1 1
1 2 2
2 0 0
2 1 3
2 2 0
2 65 84 0 9
0 0 3
0 1 0
0 2 1
1 0 1
1 1 2
1 2 0
2 0 0
2 1 2
2 2 0
2 13 35 0 9
0 0 3
0 1 2
0 2 0
1 0 0
1 1 3
1 2 0
2 0 2
2 1 0
2 2 2
2 11 65 0 9
0 0 0
0 1 0
0 2 1
1 0 1
1 1 3
1 2 0
2 0 1
2 1 0
2 2 1
2 20 31 0 9
0 0 0
0 1 0
0 2 2
1 0 0
1 1 2
1 2 1
2 0 1
2 1 0
2 2 2
2 13 49 0 9
0 0 0
0 1 3
0 2 3
1 0 1
1 1 0
1 2 3
2 0 0
2 1 1
2 2 0
2 0 97 0 9
0 0 2
0 1 3
0 2 0
1 0 3
1 1 0
1 2 0
2 0 3
2 1 0
2 2 2
2 16 99 0 9
0 0 0
0 1 1
0 2 1
1 0 0
1 1 0
1 2 1
2 0 1
2 1 0
2 2 2
2 1 87 0 9
0 0 3
0 1 1
0 2 0
1 0 1
1 1 0
1 2 3
2 0 0
2 1 2
2 2 0
2 10 84 0 9
0 0 3
0 1 2
0 2 0
1 0 0
1 1 3
1 2 2
2 0 0
2 1 3
2 2 0
2 3 32 0 9
0 0 0
0 1 0
0 2 1
1 0 0
1 1 3
1 2 2
2 0 2
2 1 0
2 2 1
2 68 71 0 9
0 0 0
0 1 2
0 2 0
1 0 0
1 1 3
1 2 0
2 0 3
2 1 1
2 2 2
2 19 59 0 9
0 0 0
0 1 1
0 2 2
1 0 3
1 1 0
1 2 0
2 0 3
2 1 2
2 2 0
2 69 83 0 9
0 0 0
0 1 2
0 2 1
1 0 0
1 1 2
1 2 2
2 0 0
2 1 0
2 2 2
2 10 59 0 9
0 0 0
0 1 1
0 2 3
1 0 0
1 1 0
1 2 2
2 0 2
2 1 0
2 2 2
2 31 83 0 9
0 0 3
0 1 0
0 2 1
1 0 0
1 1 2
1 2 0
2 0 2
2 1 1
2 2 0
2 13 91 0 9
0 0 0
0 1 2
0 2 1
1 0 1
1 1 0
1 2 3
2 0 0
2 1 0
2 2 2
2 79 94 0 9
0 0 0
0 1 2
0 2 1
1 0 0
1 1 3
1 2 0
2 0 3
2 1 1
2 2 0
2 0 90 0 9
0 0 0
0 1 3
0 2 0
1 0 2
1 1 1
1 2 2
2 0 0
2 1 1
2 2 0
2 27 48 0 9
0 0 1
0 1 3
0 2 2
1 0 0
1 1 3
1 2 0
2 0 0
2 1 3
2 2 0
2 46 64 0 9
0 0 1
0 1 0
0 2 0
1 0 0
1 1 1
1 2 3
2 0 1
2 1 0
2 2 2
2 1 70 0 9
0 0 0
0 1 3
0 2 0
1 0 0
1 1 0
1 2 3
2 0 3
2 1 1
2 2 3
2 45 78 0 9
0 0 0
0 1 2
0 2 0
1 0 2
1 1 2
1 2 3
2 0 0
2 1 3
2 2 0
2 3 94 0 9
0 0 0
0 1 0
0 2 0
1 0 3
1 1 1
1 2 2
2 0 2
2 1 2
2 2 0
2 15 16 0 9
0 0 1
0 1 1
0 2 0
1 0 1
1 1 0
1 2 2
2 0 0
2 1 1
2 2 0
2 20 22 0 9
0 0 3
0 1 0
0 2 0
1 0 0
1 1 2
1 2 0
2 0 1
2 1 3
2 2 2
2 29 70 0 9
0 0 1
0 1 0
0 2 1
1 0 3
1 1 1
1 2 2
2 0 0
2 1 0
2 2 0
2 35 42 0 9
0 0 0
0 1 0
0 2 1
1 0 1
1 1 2
1 2 0
2 0 1
2 1 1
2 2 0
2 8 46 0 9
0 0 0
0 1 0
0 2 1
1 0 1
1 1 3
1 2 0
2 0 0
2 1 2
2 2 2
2 15 76 0 9
0 0 0
0 1 0
0 2 1
1 0 1
1 1 0
1 2 1
2 0 0
2 1 3
2 2 2
2 7 92 0 9
0 0 0
0 1 3
0 2 3
1 0 3
1 1 0
1 2 2
2 0 2
2 1 0
2 2 0
2 4 63 0 9
0 0 0
0 1 3
0 2 0
1 0 1
1 1 0
1 2 0
2 0 1
2 1 3
2 2 2
2 0 23 0 9
0 0 3
0 1 3
0 2 1
1 0 0
1 1 0
1 2 0
2 0 0
2 1 2
2 2 3
2 9 48 0 9
0 0 0
0 1 2
0 2 3
1 0 3
1 1 0
1 2 3
2 0 1
2 1 0
2 2 0
2 19 62 0 9
0 0 0
0 1 1
0 2 0
1 0 1
1 1 0
1 2 1
2 0 0
2 1 1
2 2 2
2 36 45 0 9
0 0 0
0 1 2
0 2 3
1 0 1
1 1 1
1 2 0
2 0 0
2 1 1
2 2 0
2 18 71 0 9
0 0 0
0 1 0
0 2 1
1 0 2
1 1 2
1 2 0
2 0 0
2 1 1
2 2 1
2 35 54 0 9
0 0 0
0 1 1
0 2 0
1 0 2
1 1 0
1 2 3
2 0 3
2 1 3
2 2 0
2 51 82 0 9
0 0 0
0 1 1
0 2 2
1 0 0
1 1 2
1 2 0
2 0 1
2 1 1
2 2 0
2 6 8 0 9
0 0 0
0 1 3
0 2 1
1 0 3
1 1 0
1 2 0
2 0 0
2 1 2
2 2 3
2 75 88 0 9
0 0 3
0 1 1
0 2 3
1 0 0
1 1 1
1 2 0
2 0 0
2 1 1
2 2 0
2 64 70 0 9
0 0 0
0 1 3
0 2 2
1 0 2
1 1 2
1 2 0
2 0 0
2 1 1
2 2 0
2 30 57 0 9
0 0 0
0 1 2
0 2 0
1 0 1
1 1 1
1 2 3
2 0 0
2 1 2
2 2 0
2 66 99 0 9
0 0 0
0 1 0
0 2 2
1 0 0
1 1 3
1 2 1
2 0 3
2 1 0
2 2 3
2 21 31 0 9
0 0 1
0 1 0
0 2 3
1 0 3
1 1 3
1 2 0
2 0 2
2 1 0
2 2 0
2 35 48 0 9
0 0 0
0 1 1
0 2 0
1 0 3
1 1 0
1 2 0
2 0 2
2 1 1
2 2 2
2 38 93 0 9
0 0 0
0 1 1
0 2 0
1 0 3
1 1 0
1 2 3
2 0 0
2 1 3
2 2 2
2 7 50 0 9
0 0 1
0 1 0
0 2 0
1 0 0
1 1 1
1 2 0
2 0 1
2 1 1
2 2 1
2 5 30 0 9
0 0 0
0 1 0
0 2 1
1 0 2
1 1 0
1 2 3
2 0 2
2 1 0
2 2 1
2 7 39 0 9
0 0 1
0 1 1
0 2 0
1 0 0
1 1 0
1 2 1
2 0 0
2 1 3
2 2 2
2 61 89 0 9
0 0 3
0 1 3
0 2 0
1 0 0
1 1 2
1 2 0
2 0 1
2 1 3
2 2 0
2 53 69 0 9
0 0 2
0 1 2
0 2 1
1 0 0
1 1 2
1 2 2
2 0 0
2 1 0
2 2 0
2 15 84 0 9
0 0 1
0 1 0
0 2 0
1 0 1
1 1 2
1 2 2
2 0 1
2 1 0
2 2 0
2 60 89 0 9
0 0 0
0 1 0
0 2 0
1 0 0
1 1 3
1 2 3
2 0 3
2 1 2
2 2 1
2 37 74 0 9
0 0 1
0 1 0
0 2 1
1 0 2
1 1 0
1 2 0
2 0 0
2 1 3
2 2 1
2 61 90 0 9
0 0 0
0 1 0
0 2 1
1 0 2
1 1 2
1 2 3
2 0 0
2 1 0
2 2 1
2 20 82 0 9
0 0 2
0 1 0
0 2 3
1 0 1
1 1 0
1 2 0
2 0 3
2 1 0
2 2 2
2 0 56 0 9
0 0 3
0 1 2
0 2 0
1 0 2
1 1 0
1 2 0
2 0 2
2 1 2
2 2 0
2 37 99 0 9
0 0 0
0 1 1
0 2 3
1 0 0
1 1 2
1 2 0
2 0 0
2 1 2
2 2 1
2 19 96 0 9
0 0 0
0 1 0
0 2 1
1 0 0
1 1 3
1 2 2
2 0 3
2 1 2
2 2 0
2 1 92 0 9
0 0 3
0 1 0
0 2 2
1 0 1
1 1 0
1 2 2
2 0 0
2 1 1
2 2 0
2 41 46 0 9
0 0 0
0 1 0
0 2 1
1 0 0
1 1 1
1 2 3
2 0 0
2 1 1
2 2 1
2 9 46 0 9
0 0 0
0 1 2
0 2 1
1 0 1
1 1 2
1 2 2
2 0 0
2 1 0
2 2 0
2 33 42 0 9
0 0 2
0 1 1
0 2 1
1 0 0
1 1 2
1 2 2
2 0 0
2 1 0
2 2 0
2 19 58 0 9
0 0 0
0 1 2
0 2 3
1 0 3
1 1 0
1 2 1
2 0 0
2 1 0
2 2 1
2 20 53 0 9
0 0 2
0 1 2
0 2 0
1 0 3
1 1 0
1 2 0
2 0 2
2 1 3
2 2 0
2 44 45 0 9
0 0 1
0 1 0
0 2 3
1 0 0
1 1 1
1 2 0
2 0 2
2 1 0
2 2 2
2 26 90 0 9
0 0 2
0 1 0
0 2 3
1 0 1
1 1 1
1 2 3
2 0 0
2 1 0
2 2 0
2 57 89 0 9
0 0 0
0 1 0
0 2 0
1 0 1
1 1 1
1 2 1
2 0 0
2 1 1
2 2 3
2 13 76 0 9
0 0 2
0 1 1
0 2 2
1 0 1
1 1 0
1 2 0
2 0 3
2 1 0
2 2 0
2 11 45 0 9
0 0 0
0 1 3
0 2 1
1 0 0
1 1 2
1 2 3
2 0 0
2 1 3
2 2 0
2 13 73 0 9
0 0 2
0 1 1
0 2 1
1 0 3
1 1 0
1 2 0
2 0 0
2 1 2
2 2 0
2 70 96 0 9
0 0 1
0 1 0
0 2 0
1 0 1
1 1 2
1 2 1
2 0 3
2 1 0
2 2 0
2 13 57 0 9
0 0 1
0 1 3
0 2 3
1 0 0
1 1 3
1 2 0
2 0 0
2 1 0
2 2 3
2 0 7 0 9
0 0 0
0 1 3
0 2 0
1 0 1
1 1 0
1 2 1
2 0 2
2 1 0
2 2 3
2 15 52 0 9
0 0 0
0 1 2
0 2 2
1 0 0
1 1 1
1 2 2
2 0 1
2 1 0
2 2 0
2 80 87 0 9
0 0 1
0 1 0
0 2 1
1 0 1
1 1 0
1 2 1
2 0 1
2 1 0
2 2 0
2 21 84 0 9
0 0 0
0 1 2
0 2 2
1 0 0
1 1 1
1 2 2
2 0 0
2 1 3
2 2 0
2 7 71 0 9
0 0 3
0 1 0
0 2 2
1 0 0
1 1 3
1 2 3
2 0 0
2 1 0
2 2 3
2 17 26 0 9
0 0 0
0 1 2
0 2 0
1 0 0
1 1 1
1 2 0
2 0 1
2 1 2
2 2 1
2 51 53 0 9
0 0 0
0 1 2
0 2 0
1 0 0
1 1 2
1 2 2
2 0 0
2 1 1
2 2 1
2 21 82 0 9
0 0 0
0 1 3
0 2 2
1 0 0
1 1 0
1 2 1
2 0 2
2 1 2
2 2 0
2 36 61 0 9
0 0 0
0 1 2
0 2 0
1 0 0
1 1 3
1 2 3
2 0 3
2 1 0
2 2 2
2 25 88 0 9
0 0 2
0 1 1
0 2 0
1 0 2
1 1 0
1 2 1
2 0 1
2 1 0
2 2 0
2 0 14 0 9
0 0 1
0 1 3
0 2 0
1 0 1
1 1 3
1 2 0
2 0 0
2 1 2
2 2 0
2 42 87 0 9
0 0 0
0 1 0
0 2 2
1 0 1
1 1 1
1 2 1
2 0 3
2 1 0
2 2 0
2 29 35 0 9
0 0 2
0 1 0
0 2 2
1 0 3
1 1 0
1 2 0
2 0 3
2 1 0
2 2 2
2 7 8 0 9
0 0 0
0 1 3
0 2 2
1 0 0
1 1 3
1 2 1
2 0 0
2 1 3
2 2 0
2 39 54 0 9
0 0 2
0 1 0
0 2 1
1 0 0
1 1 3
1 2 1
2 0 0
2 1 0
2 2 3
2 9 11 0 9
0 0 2
0 1 0
0 2 0
1 0 0
1 1 1
1 2 2
2 0 0
2 1 3
2 2 1
2 34 76 0 9
0 0 0
0 1 2
0 2 2
1 0 3
1 1 0
1 2 2
2 0 0
2 1 0
2 2 3
2 14 52 0 9
0 0 3
0 1 2
0 2 3
1 0 1
1 1 0
1 2 1
2 0 0
2 1 0
2 2 0
2 70 78 0 9
0 0 0
0 1 2
0 2 0
1 0 2
1 1 1
1 2 0
2 0 1
2 1 0
2 2 1
2 14 73 0 9
0 0 0
0 1 2
0 2 0
1 0 0
1 1 0
1 2 2
2 0 2
2 1 2
2 2 2
2 5 66 0 9
0 0 0
0 1 1
0 2 0
1 0 0
1 1 1
1 2 1
2 0 0
2 1 2
2 2 1
2 44 68 0 9
0 0 0
0 1 0
0 2 1
1 0 0
1 1 0
1 2 2
2 0 1
2 1 1
2 2 1
2 21 39 0 9
0 0 0
0 1 1
0 2 3
1 0 0
1 1 0
1 2 3
2 0 0
2 1 1
2 2 3
2 8 51 0 9
0 0 0
0 1 0
0 2 2
1 0 0
1 1 0
1 2 3
2 0 2
2 1 2
2 2 1
2 15 72 0 9
0 0 0
0 1 2
0 2 2
1 0 2
1 1 0
1 2 0
2 0 0
2 1 1
2 2 1
2 94 98 0 9
0 0 3
0 1 2
0 2 0
1 0 0
1 1 2
1 2 0
2 0 2
2 1 2
2 2 0
2 25 62 0 9
0 0 3
0 1 2
0 2 3
1 0 0
1 1 1
1 2 0
2 0 0
2 1 3
2 2 0
2 20 47 0 9
0 0 1
0 1 0
0 2 2
1 0 0
1 1 0
1 2 1
2 0 0
2 1 1
2 2 3
2 79 97 0 9
0 0 2
0 1 0
0 2 0
1 0 3
1 1 2
1 2 0
2 0 0
2 1 1
2 2 1
2 14 30 0 9
0 0 3
0 1 0
0 2 0
1 0 0
1 1 0
1 2 2
2 0 3
2 1 3
2 2 1
2 49 70 0 9
0 0 0
0 1 3
0 2 3
1 0 2
1 1 0
1 2 0
2 0 2
2 1 3
2 2 0
2 61 96 0 9
0 0 1
0 1 0
0 2 0
1 0 3
1 1 1
1 2 1
2 0 3
2 1 0
2 2 0
2 17 95 0 9
0 0 2
0 1 2
0 2 0
1 0 0
1 1 0
1 2 2
2 0 2
2 1 0
2 2 3
2 0 52 0 9
0 0 0
0 1 3
0 2 2
1 0 1
1 1 0
1 2 0
2 0 3
2 1 1
2 2 0
2 14 25 0 9
0 0 3
0 1 3
0 2 1
1 0 0
1 1 1
1 2 1
2 0 0
2 1 0
2 2 0
2 69 93 0 9
0 0 1
0 1 0
0 2 0
1 0 2
1 1 3
1 2 1
2 0 0
2 1 1
2 2 0
2 16 43 0 9
0 0 3
0 1 0
0 2 2
1 0 0
1 1 1
1 2 1
2 0 0
2 1 0
2 2 3
2 41 81 0 9
0 0 2
0 1 0
0 2 2
1 0 1
1 1 0
1 2 0
2 0 0
2 1 1
2 2 3
2 75 78 0 9
0 0 1
0 1 0
0 2 1
1 0 0
1 1 0
1 2 2
2 0 1
2 1 1
2 2 0
2 42 48 0 9
0 0 1
0 1 0
0 2 2
1 0 0
1 1 0
1 2 1
2 0 3
2 1 2
2 2 0
2 51 71 0 9
0 0 2
0 1 0
0 2 2
1 0 0
1 1 0
1 2 2
2 0 2
2 1 0
2 2 3
2 0 22 0 9
0 0 2
0 1 0
0 2 2
1 0 1
1 1 0
1 2 2
2 0 3
2 1 0
2 2 0
2 58 87 0 9
0 0 0
0 1 2
0 2 3
1 0 3
1 1 0
1 2 2
2 0 0
2 1 0
2 2 1
2 42 61 0 9
0 0 0
0 1 0
0 2 3
1 0 3
1 1 3
1 2 0
2 0 2
2 1 2
2 2 0
2 15 69 0 9
0 0 2
0 1 1
0 2 2
1 0 0
1 1 2
1 2 0
2 0 0
2 1 0
2 2 2
2 58 94 0 9
0 0 0
0 1 1
0 2 0
1 0 0
1 1 3
1 2 1
2 0 1
2 1 0
2 2 1
2 50 69 0 9
0 0 0
0 1 0
0 2 0
1 0 3
1 1 0
1 2 3
2 0 2
2 1 1
2 2 2
2 15 82 0 9
0 0 1
0 1 0
0 2 0
1 0 3
1 1 0
1 2 2
2 0 0
2 1 1
2 2 2
2 7 31 0 9
0 0 3
0 1 0
0 2 3
1 0 0
1 1 1
1 2 0
2 0 0
2 1 3
2 2 2
2 24 48 0 9
0 0 3
0 1 0
0 2 3
1 0 0
1 1 1
1 2 0
2 0 2
2 1 2
2 2 0
2 78 87 0 9
0 0 0
0 1 0
0 2 3
1 0 1
1 1 3
1 2 1
2 0 2
2 1 0
2 2 0
2 57 86 0 9
0 0 0
0 1 2
0 2 3
1 0 1
1 1 3
1 2 0
2 0 0
2 1 0
2 2 2
2 89 94 0 9
0 0 0
0 1 0
0 2 0
1 0 3
1 1 3
1 2 1
2 0 0
2 1 1
2 2 1
2 69 88 0 9
0 0 1
0 1 0
0 2 3
1 0 0
1 1 3
1 2 0
2 0 3
2 1 0
2 2 3
2 46 52 0 9
0 0 1
0 1 0
0 2 0
1 0 1
1 1 1
1 2 1
2 0 3
2 1 0
2 2 0
2 50 98 0 9
0 0 2
0 1 0
0 2 1
1 0 3
1 1 1
1 2 1
2 0 0
2 1 0
2 2 0
2 10 89 0 9
0 0 0
0 1 3
0 2 1
1 0 0
1 1 3
1 2 0
2 0 3
2 1 2
2 2 0
2 48 81 0 9
0 0 2
0 1 0
0 2 0
1 0 0
1 1 2
1 2 2
2 0 3
2 1 0
2 2 3
2 6 17 0 9
0 0 0
0 1 3
0 2 2
1 0 0
1 1 0
1 2 2
2 0 3
2 1 0
2 2 1
2 3 64 0 9
0 0 0
0 1 0
0 2 3
1 0 0
1 1 3
1 2 3
2 0 0
2 1 2
2 2 2
2 32 92 0 9
0 0 0
0 1 0
0 2 1
1 0 1
1 1 0
1 2 0
2 0 1
2 1 1
2 2 2
2 54 95 0 9
0 0 0
0 1 0
0 2 3
1 0 3
1 1 0
1 2 3
2 0 1
2 1 1
2 2 0
2 66 82 0 9
0 0 0
0 1 0
0 2 3
1 0 3
1 1 2
1 2 0
2 0 0
2 1 1
2 2 1
2 42 83 0 9
0 0 1
0 1 0
0 2 0
1 0 2
1 1 2
1 2 3
2 0 1
2 1 0
2 2 0
2 11 14 0 9
0 0 0
0 1 1
0 2 1
1 0 0
1 1 1
1 2 2
2 0 0
2 1 0
2 2 1
2 10 24 0 9
0 0 0
0 1 1
0 2 0
1 0 2
1 1 0
1 2 1
2 0 1
2 1 0
2 2 2
2 23 43 0 9
0 0 1
0 1 0
0 2 0
1 0 0
1 1 2
1 2 0
2 0 3
2 1 1
2 2 1
2 35 50 0 9
0 0 0
0 1 3
0 2 1
1 0 2
1 1 0
1 2 0
2 0 0
2 1 3
2 2 3
2 32 95 0 9
0 0 1
0 1 0
0 2 1
1 0 2
1 1 0
1 2 0
2 0 3
2 1 1
2 2 0
2 49 53 0 9
0 0 3
0 1 0
0 2 3
1 0 0
1 1 0
1 2 0
2 0 2
2 1 3
2 2 2
2 50 71 0 9
0 0 1
0 1 2
0 2 0
1 0 0
1 1 0
1 2 2
2 0 3
2 1 3
2 2 0
2 37 64 0 9
0 0 2
0 1 0
0 2 3
1 0 0
1 1 1
1 2 0
2 0 0
2 1 3
2 2 3
2 3 8 0 9
0 0 0
0 1 2
0 2 0
1 0 2
1 1 2
1 2 2
2 0 1
2 1 0
2 2 0
2 3 46 0 9
0 0 2
0 1 1
0 2 3
1 0 0
1 1 3
1 2 0
2 0 3
2 1 0
2 2 0
2 37 56 0 9
0 0 2
0 1 0
0 2 0
1 0 2
1 1 0
1 2 3
2 0 3
2 1 0
2 2 1
2 28 49 0 9
0 0 3
0 1 2
0 2 3
1 0 0
1 1 1
1 2 0
2 0 0
2 1 2
2 2 0
2 13 31 0 9
0 0 0
0 1 3
0 2 0
1 0 3
1 1 0
1 2 1
2 0 0
2 1 2
2 2 2
2 71 88 0 9
0 0 0
0 1 1
0 2 1
1 0 2
1 1 0
1 2 0
2 0 3
2 1 0
2 2 3
2 2 71 0 9
0 0 1
0 1 3
0 2 1
1 0 2
1 1 3
1 2 0
2 0 0
2 1 0
2 2 0
2 6 41 0 9
0 0 0
0 1 3
0 2 3
1 0 0
1 1 1
1 2 2
2 0 3
2 1 0
2 2 0
2 0 13 0 9
0 0 0
0 1 3
0 2 0
1 0 2
1 1 1
1 2 0
2 0 0
2 1 2
2 2 2
2 36 64 0 9
0 0 0
0 1 2
0 2 0
1 0 1
1 1 2
1 2 0
2 0 0
2 1 2
2 2 3
2 51 92 0 9
0 0 0
0 1 0
0 2 3
1 0 0
1 1 3
1 2 3
2 0 1
2 1 3
2 2 0
2 20 49 0 9
0 0 0
0 1 0
0 2 0
1 0 1
1 1 2
1 2 3
2 0 3
2 1 0
2 2 3
2 52 61 0 9
0 0 0
0 1 2
0 2 0
1 0 2
1 1 3
1 2 3
2 0 2
2 1 0
2 2 0
2 67 83 0 9
0 0 3
0 1 3
0 2 0
1 0 0
1 1 0
1 2 1
2 0 0
2 1 3
2 2 1
2 73 81 0 9
0 0 2
0 1 0
0 2 0
1 0 1
1 1 0
1 2 1
2 0 0
2 1 2
2 2 2
2 18 84 0 9
0 0 0
0 1 1
0 2 0
1 0 2
1 1 3
1 2 0
2 0 3
2 1 1
2 2 0
2 44 75 0 9
0 0 0
0 1 1
0 2 1
1 0 3
1 1 2
1 2 0
2 0 2
2 1 0
2 2 0
2 5 16 0 9
0 0 0
0 1 0
0 2 2
1 0 0
1 1 2
1 2 1
2 0 2
2 1 2
2 2 0
2 12 80 0 9
0 0 0
0 1 2
0 2 0
1 0 0
1 1 1
1 2 1
2 0 3
2 1 0
2 2 2
2 41 82 0 9
0 0 0
0 1 2
0 2 1
1 0 3
1 1 1
1 2 0
2 0 0
2 1 0
2 2 1
2 6 14 0 9
0 0 0
0 1 3
0 2 0
1 0 2
1 1 0
1 2 1
2 0 1
2 1 0
2 2 3
2 21 48 0 9
0 0 0
0 1 1
0 2 0
1 0 2
1 1 3
1 2 1
2 0 0
2 1 0
2 2 1
2 36 90 0 9
0 0 2
0 1 0
0 2 0
1 0 3
1 1 2
1 2 0
2 0 1
2 1 0
2 2 2
2 34 58 0 9
0 0 0
0 1 2
0 2 0
1 0 1
1 1 0
1 2 3
2 0 3
2 1 0
2 2 1
2 21 38 0 9
0 0 0
0 1 2
0 2 0
1 0 0
1 1 3
1 2 1
2 0 1
2 1 0
2 2 2
2 11 86 0 9
0 0 0
0 1 1
0 2 2
1 0 0
1 1 1
1 2 2
2 0 0
2 1 0
2 2 2
2 14 35 0 9
0 0 1
0 1 2
0 2 0
1 0 1
1 1 0
1 2 0
2 0 3
2 1 0
2 2 1
2 59 95 0 9
0 0 1
0 1 2
0 2 2
1 0 1
1 1 0
1 2 0
2 0 0
2 1 0
2 2 3
2 64 69 0 9
0 0 1
0 1 0
0 2 2
1 0 3
1 1 2
1 2 0
2 0 1
2 1 0
2 2 0
2 40 68 0 9
0 0 0
0 1 1
0 2 0
1 0 0
1 1 1
1 2 3
2 0 2
2 1 3
2 2 0
2 15 49 0 9
0 0 0
0 1 1
0 2 0
1 0 1
1 1 0
1 2 3
2 0 2
2 1 0
2 2 1
2 23 26 0 9
0 0 1
0 1 0
0 2 0
1 0 3
1 1 3
1 2 0
2 0 1
2 1 2
2 2 0
2 8 64 0 9
0 0 0
0 1 0
0 2 3
1 0 3
1 1 0
1 2 3
2 0 0
2 1 3
2 2 2
2 31 89 0 9
0 0 1
0 1 3
0 2 0
1 0 2
1 1 0
1 2 0
2 0 0
2 1 3
2 2 2
2 3 88 0 9
0 0 0
0 1 0
0 2 1
1 0 0
1 1 2
1 2 1
2 0 1
2 1 0
2 2 3
2 21 42 0 9
0 0 3
0 1 0
0 2 1
1 0 1
1 1 0
1 2 3
2 0 1
2 1 0
2 2 0
2 29 40 0 9
0 0 2
0 1 0
0 2 1
1 0 2
1 1 0
1 2 3
2 0 0
2 1 1
2 2 0
2 5 65 0 9
0 0 0
0 1 2
0 2 0
1 0 3
1 1 3
1 2 0
2 0 0
2 1 2
2 2 1
2 37 66 0 9
0 0 3
0 1 2
0 2 0
1 0 0
1 1 0
1 2 2
2 0 2
2 1 0
2 2 1
2 93 95 0 9
0 0 0
0 1 0
0 2 0
1 0 3
1 1 1
1 2 3
2 0 3
2 1 0
2 2 3
2 48 55 0 9
0 0 1
0 1 1
0 2 1
1 0 0
1 1 0
1 2 1
2 0 2
2 1 0
2 2 0
2 8 82 0 9
0 0 3
0 1 0
0 2 2
1 0 0
1 1 3
1 2 2
2 0 2
2 1 0
2 2 0
2 33 48 0 9
0 0 1
0 1 2
0 2 3
1 0 2
1 1 0
1 2 0
2 0 0
2 1 2
2 2 0
2 10 63 0 9
0 0 2
0 1 0
0 2 2
1 0 1
1 1 0
1 2 0
2 0 0
2 1 3
2 2 1
2 21 27 0 9
0 0 0
0 1 2
0 2 0
1 0 1
1 1 0
1 2 0
2 0 1
2 1 3
2 2 1
2 39 47 0 9
0 0 3
0 1 0
0 2 3
1 0 1
1 1 0
1 2 0
2 0 3
2 1 2
2 2 0
2 45 94 0 9
0 0 3
0 1 1
0 2 0
1 0 0
1 1 1
1 2 1
2 0 0
2 1 0
2 2 3
2 3 84 0 9
0 0 3
0 1 1
0 2 0
1 0 0
1 1 3
1 2 0
2 0 2
2 1 0
2 2 2
2 52 82 0 9
0 0 0
0 1 3
0 2 1
1 0 3
1 1 0
1 2 3
2 0 0
2 1 2
2 2 0
2 0 37 0 9
0 0 0
0 1 3
0 2 3
1 0 3
1 1 0
1 2 0
2 0 1
2 1 0
2 2 3
2 39 88 0 9
0 0 0
0 1 0
0 2 1
1 0 1
1 1 1
1 2 0
2 0 3
2 1 0
2 2 1
2 10 86 0 9
0 0 0
0 1 1
0 2 0
1 0 2
1 1 0
1 2 2
2 0 0
2 1 3
2 2 1
2 41 74 0 9
0 0 2
0 1 0
0 2 3
1 0 2
1 1 2
1 2 0
2 0 0
2 1 0
2 2 1
2 39 42 0 9
0 0 3
0 1 0
0 2 0
1 0 3
1 1 2
1 2 2
2 0 0
2 1 0
2 2 1
2 17 42 0 9
0 0 2
0 1 1
0 2 1
1 0 0
1 1 0
1 2 1
2 0 0
2 1 1
2 2 0
2 65 74 0 9
0 0 0
0 1 3
0 2 1
1 0 0
1 1 0
1 2 0
2 0 2
2 1 3
2 2 2
2 39 45 0 9
0 0 1
0 1 3
0 2 2
1 0 0
1 1 0
1 2 0
2 0 2
2 1 0
2 2 1
2 14 61 0 9
0 0 1
0 1 0
0 2 0
1 0 2
1 1 0
1 2 2
2 0 1
2 1 0
2 2 2
2 55 98 0 9
0 0 2
0 1 0
0 2 0
1 0 3
1 1 3
1 2 3
2 0 0
2 1 0
2 2 2
2 36 92 0 9
0 0 0
0 1 1
0 2 3
1 0 2
1 1 3
1 2 0
2 0 2
2 1 0
2 2 0
2 36 95 0 9
0 0 0
0 1 2
0 2 1
1 0 0
1 1 2
1 2 1
2 0 0
2 1 0
2 2 2
2 9 95 0 9
0 0 1
0 1 0
0 2 2
1 0 0
1 1 2
1 2 2
2 0 0
2 1 2
2 2 0
2 63 84 0 9
0 0 1
0 1 3
0 2 0
1 0 0
1 1 1
1 2 3
2 0 0
2 1 1
2 2 0
2 70 81 0 9
0 0 3
0 1 0
0 2 0
1 0 3
1 1 0
1 2 3
2 0 2
2 1 0
2 2 2
2 22 78 0 9
0 0 1
0 1 1
0 2 0
1 0 1
1 1 0
1 2 2
2 0 0
2 1 0
2 2 2
2 5 58 0 9
0 0 0
0 1 0
0 2 1
1 0 3
1 1 3
1 2 3
2 0 1
2 1 0
2 2 0
2 36 72 0 9
0 0 0
0 1 1
0 2 0
1 0 2
1 1 2
1 2 0
2 0 0
2 1 1
2 2 2
2 42 94 0 9
0 0 1
0 1 1
0 2 2
1 0 3
1 1 2
1 2 0
2 0 0
2 1 0
2 2 0
2 34 99 0 9
0 0 0
0 1 2
0 2 1
1 0 0
1 1 1
1 2 0
2 0 0
2 1 3
2 2 2
2 61 94 0 9
0 0 0
0 1 1
0 2 2
1 0 0
1 1 2
1 2 0
2 0 2
2 1 0
2 2 2
2 43 88 0 9
0 0 2
0 1 3
0 2 0
1 0 2
1 1 3
1 2 1
2 0 0
2 1 0
2 2 0
2 60 90 0 9
0 0 1
0 1 3
0 2 1
1 0 1
1 1 0
1 2 2
2 0 0
2 1 0
2 2 0
2 10 96 0 9
0 0 2
0 1 2
0 2 3
1 0 0
1 1 0
1 2 1
2 0 0
2 1 0
2 2 2
2 4 86 0 9
0 0 2
0 1 0
0 2 2
1 0 0
1 1 2
1 2 2
2 0 3
2 1 0
2 2 0
2 73 93 0 9
0 0 1
0 1 0
0 2 2
1 0 0
1 1 0
1 2 1
2 0 0
2 1 1
2 2 2
2 1 94 0 9
0 0 0
0 1 1
0 2 3
1 0 0
1 1 2
1 2 0
2 0 2
2 1 0
2 2 1
2 17 36 0 9
0 0 0
0 1 3
0 2 0
1 0 2
1 1 2
1 2 3
2 0 0
2 1 0
2 2 2
2 45 76 0 9
0 0 0
0 1 2
0 2 2
1 0 0
1 1 1
1 2 2
2 0 1
2 1 0
2 2 0
2 29 31 0 9
0 0 0
0 1 2
0 2 2
1 0 1
1 1 1
1 2 2
2 0 0
2 1 0
2 2 0
2 38 77 0 9
0 0 2
0 1 2
0 2 0
1 0 0
1 1 0
1 2 3
2 0 2
2 1 0
2 2 2
2 59 65 0 9
0 0 0
0 1 0
0 2 2
1 0 2
1 1 2
1 2 0
2 0 3
2 1 0
2 2 2
2 59 76 0 9
0 0 1
0 1 0
0 2 3
1 0 2
1 1 0
1 2 0
2 0 0
2 1 2
2 2 1
2 40 51 0 9
0 0 0
0 1 0
0 2 1
1 0 2
1 1 3
1 2 3
2 0 0
2 1 2
2 2 0
2 59 86 0 9
0 0 1
0 1 2
0 2 0
1 0 2
1 1 1
1 2 0
2 0 3
2 1 0
2 2 0
2 81 97 0 9
0 0 0
0 1 3
0 2 0
1 0 2
1 1 2
1 2 3
2 0 0
2 1 0
2 2 3
2 9 47 0 9
0 0 0
0 1 0
0 2 3
1 0 1
1 1 1
1 2 0
2 0 2
2 1 0
2 2 2
2 16 58 0 9
0 0 1
0 1 2
0 2 0
1 0 0
1 1 3
1 2 2
2 0 0
2 1 0
2 2 3
2 29 79 0 9
0 0 0
0 1 1
0 2 3
1 0 2
1 1 0
1 2 0
2 0 3
2 1 3
2 2 0
2 38 39 0 9
0 0 2
0 1 2
0 2 0
1 0 1
1 1 2
1 2 0
2 0 0
2 1 0
2 2 1
2 39 51 0 9
0 0 2
0 1 0
0 2 0
1 0 0
1 1 0
1 2 1
2 0 3
2 1 3
2 2 3
2 8 84 0 9
0 0 1
0 1 0
0 2 0
1 0 3
1 1 3
1 2 1
2 0 3
2 1 0
2 2 0
2 17 73 0 9
0 0 1
0 1 0
0 2 0
1 0 0
1 1 2
1 2 3
2 0 2
2 1 3
2 2 0
2 6 53 0 9
0 0 0
0 1 1
0 2 2
1 0 2
1 1 1
1 2 1
2 0 0
2 1 0
2 2 0
2 24 98 0 9
0 0 3
0 1 0
0 2 1
1 0 2
1 1 0
1 2 0
2 0 2
2 1 3
2 2 0
2 3 18 0 9
0 0 3
0 1 3
0 2 0
1 0 0
1 1 0
1 2 0
2 0 3
2 1 1
2 2 2
2 8 13 0 9
0 0 3
0 1 1
0 2 2
1 0 0
1 1 1
1 2 1
2 0 0
2 1 0
2 2 0
2 25 84 0 9
0 0 0
0 1 3
0 2 0
1 0 3
1 1 3
1 2 0
2 0 0
2 1 1
2 2 1
2 32 37 0 9
0 0 0
0 1 2
0 2 0
1 0 3
1 1 1
1 2 0
2 0 2
2 1 1
2 2 0
2 18 72 0 9
0 0 0
0 1 2
0 2 1
1 0 0
1 1 0
1 2 2
2 0 2
2 1 1
2 2 0
2 32 74 0 9
0 0 3
0 1 3
0 2 1
1 0 0
1 1 0
1 2 0
2 0 0
2 1 3
2 2 3
2 20 75 0 9
0 0 2
0 1 2
0 2 0
1 0 0
1 1 3
1 2 0
2 0 2
2 1 0
2 2 1
2 39 63 0 9
0 0 1
0 1 0
0 2 2
1 0 1
1 1 0
1 2 3
2 0 0
2 1 2
2 2 0
2 2 29 0 9
0 0 3
0 1 0
0 2 2
1 0 0
1 1 2
1 2 3
2 0 3
2 1 0
2 2 0
2 95 96 0 9
0 0 0
0 1 2
0 2 3
1 0 0
1 1 0
1 2 2
2 0 0
2 1 1
2 2 2
2 33 75 0 9
0 0 0
0 1 0
0 2 0
1 0 0
1 1 1
1 2 2
2 0 1
2 1 3
2 2 3
2 32 53 0 9
0 0 0
0 1 0
0 2 3
1 0 2
1 1 2
1 2 0
2 0 0
2 1 3
2 2 2
2 11 75 0 9
0 0 1
0 1 2
0 2 0
1 0 0
1 1 3
1 2 2
2 0 0
2 1 0
2 2 2
2 27 50 0 9
0 0 0
0 1 0
0 2 2
1 0 0
1 1 0
1 2 3
2 0 1
2 1 3
2 2 3
2 72 74 0 9
0 0 2
0 1 0
0 2 2
1 0 0
1 1 3
1 2 0
2 0 0
2 1 2
2 2 3
2 26 52 0 9
0 0 2
0 1 0
0 2 0
1 0 0
1 1 0
1 2 3
2 0 1
2 1 2
2 2 2
2 3 55 0 9
0 0 1
0 1 2
0 2 2
1 0 0
1 1 0
1 2 0
2 0 2
2 1 2
2 2 0
2 34 49 0 9
0 0 2
0 1 0
0 2 0
1 0 1
1 1 0
1 2 1
2 0 0
2 1 3
2 2 3
2 11 90 0 9
0 0 3
0 1 0
0 2 1
1 0 0
1 1 1
1 2 0
2 0 3
2 1 0
2 2 1
2 56 80 0 9
0 0 2
0 1 0
0 2 0
1 0 1
1 1 0
1 2 1
2 0 1
2 1 3
2 2 0
2 54 58 0 9
0 0 0
0 1 0
0 2 0
1 0 2
1 1 2
1 2 3
2 0 3
2 1 0
2 2 3
2 43 59 0 9
0 0 0
0 1 0
0 2 0
1 0 2
1 1 3
1 2 2
2 0 0
2 1 1
2 2 2
2 45 51 0 9
0 0 2
0 1 1
0 2 0
1 0 3
1 1 1
1 2 1
2 0 0
2 1 0
2 2 0
2 77 86 0 9
0 0 0
0 1 0
0 2 2
1 0 1
1 1 3
1 2 2
2 0 1
2 1 0
2 2 0
2 72 85 0 9
0 0 1
0 1 1
0 2 2
1 0 0
1 1 0
1 2 2
2 0 3
2 1 0
2 2 0
2 22 26 0 9
0 0 1
0 1 0
0 2 0
1 0 3
1 1 0
1 2 1
2 0 3
2 1 1
2 2 0
2 0 73 0 9
0 0 2
0 1 0
0 2 0
1 0 2
1 1 0
1 2 0
2 0 1
2 1 3
2 2 2
2 13 26 0 9
0 0 1
0 1 3
0 2 0
1 0 0
1 1 1
1 2 2
2 0 0
2 1 0
2 2 1
2 26 45 0 9
0 0 3
0 1 0
0 2 0
1 0 0
1 1 3
1 2 1
2 0 0
2 1 3
2 2 1
2 9 69 0 9
0 0 0
0 1 1
0 2 0
1 0 3
1 1 3
1 2 2
2 0 0
2 1 1
2 2 0
2 66 84 0 9
0 0 3
0 1 2
0 2 3
1 0 0
1 1 0
1 2 1
2 0 0
2 1 0
2 2 1
2 40 46 0 9
0 0 2
0 1 1
0 2 0
1 0 0
1 1 0
1 2 2
2 0 3
2 1 0
2 2 2
2 57 88 0 9
0 0 0
0 1 1
0 2 2
1 0 1
1 1 2
1 2 0
2 0 3
2 1 0
2 2 0
2 39 50 0 9
0 0 1
0 1 3
0 2 2
1 0 0
1 1 3
1 2 0
2 0 0
2 1 1
2 2 0
2 25 61 0 9
0 0 0
0 1 3
0 2 0
1 0 2
1 1 0
1 2 1
2 0 3
2 1 0
2 2 1
2 28 76 0 9
0 0 2
0 1 0
0 2 2
1 0 3
1 1 0
1 2 1
2 0 3
2 1 0
2 2 0
2 10 91 0 9
0 0 3
0 1 0
0 2 0
1 0 1
1 1 3
1 2 0
2 0 0
2 1 3
2 2 2
2 32 64 0 9
0 0 3
0 1 0
0 2 0
1 0 3
1 1 0
1 2 0
2 0 3
2 1 2
2 2 2
2 9 43 0 9
0 0 1
0 1 3
0 2 0
1 0 1
1 1 2
1 2 0
2 0 0
2 1 3
2 2 0
2 71 84 0 9
0 0 0
0 1 2
0 2 2
1 0 0
1 1 0
1 2 2
2 0 3
2 1 1
2 2 0
2 3 16 0 9
0 0 1
0 1 0
0 2 3
1 0 3
1 1 1
1 2 0
2 0 0
2 1 3
2 2 0
2 4 6 0 9
0 0 2
0 1 0
0 2 0
1 0 3
1 1 3
1 2 1
2 0 0
2 1 3
2 2 0
2 61 77 0 9
0 0 2
0 1 1
0 2 3
1 0 0
1 1 3
1 2 2
2 0 0
2 1 0
2 2 0
2 1 78 0 9
0 0 2
0 1 1
0 2 2
1 0 0
1 1 1
1 2 0
2 0 0
2 1 0
2 2 1
2 21 29 0 9
0 0 0
0 1 2
0 2 2
1 0 0
1 1 2
1 2 1
2 0 2
2 1 0
2 2 0
2 22 66 0 9
0 0 2
0 1 1
0 2 2
1 0 3
1 1 0
1 2 0
2 0 0
2 1 0
2 2 3
2 44 65 0 9
0 0 1
0 1 0
0 2 1
1 0 1
1 1 0
1 2 0
2 0 2
2 1 0
2 2 2
2 31 77 0 9
0 0 0
0 1 2
0 2 3
1 0 3
1 1 2
1 2 1
2 0 0
2 1 0
2 2 0
2 30 83 0 9
0 0 0
0 1 0
0 2 0
1 0 1
1 1 0
1 2 3
2 0 3
2 1 2
2 2 2
2 45 75 0 9
0 0 0
0 1 1
0 2 0
1 0 0
1 1 3
1 2 2
2 0 0
2 1 3
2 2 2
2 52 62 0 9
0 0 0
0 1 2
0 2 0
1 0 2
1 1 0
1 2 2
2 0 0
2 1 2
2 2 1
2 2 23 0 9
0 0 2
0 1 0
0 2 1
1 0 0
1 1 1
1 2 1
2 0 0
2 1 0
2 2 2
2 92 99 0 9
0 0 1
0 1 1
0 2 3
1 0 3
1 1 0
1 2 2
2 0 0
2 1 0
2 2 0
2 4 65 0 9
0 0 0
0 1 0
0 2 3
1 0 3
1 1 0
1 2 0
2 0 3
2 1 1
2 2 2
2 42 59 0 9
0 0 0
0 1 3
0 2 0
1 0 3
1 1 1
1 2 0
2 0 0
2 1 3
2 2 2
2 58 72 0 9
0 0 2
0 1 1
0 2 0
1 0 1
1 1 0
1 2 0
2 0 2
2 1 2
2 2 0
2 3 78 0 9
0 0 0
0 1 3
0 2 1
1 0 1
1 1 0
1 2 0
2 0 3
2 1 2
2 2 0
2 63 80 0 9
0 0 0
0 1 2
0 2 0
1 0 0
1 1 2
1 2 3
2 0 0
2 1 2
2 2 2
2 22 74 0 9
0 0 1
0 1 0
0 2 0
1 0 0
1 1 0
1 2 3
2 0 3
2 1 2
2 2 3
2 37 62 0 9
0 0 3
0 1 0
0 2 3
1 0 1
1 1 0
1 2 0
2 0 3
2 1 3
2 2 0
2 17 30 0 9
0 0 2
0 1 1
0 2 3
1 0 0
1 1 0
1 2 0
2 0 3
2 1 0
2 2 3
2 6 97 0 9
0 0 0
0 1 3
0 2 3
1 0 0
1 1 3
1 2 2
2 0 0
2 1 0
2 2 3
2 6 88 0 9
0 0 1
0 1 2
0 2 1
1 0 0
1 1 0
1 2 0
2 0 2
2 1 0
2 2 3
2 1 60 0 9
0 0 1
0 1 1
0 2 0
1 0 0
1 1 3
1 2 0
2 0 2
2 1 0
2 2 1
2 9 16 0 9
0 0 0
0 1 3
0 2 3
1 0 1
1 1 0
1 2 0
2 0 2
2 1 0
2 2 1
2 11 26 0 9
0 0 3
0 1 1
0 2 2
1 0 0
1 1 0
1 2 1
2 0 0
2 1 0
2 2 1
2 16 47 0 9
0 0 0
0 1 2
0 2 0
1 0 0
1 1 2
1 2 1
2 0 1
2 1 3
2 2 0
2 45 56 0 9
0 0 0
0 1 3
0 2 0
1 0 2
1 1 3
1 2 0
2 0 2
2 1 3
2 2 0
2 6 74 0 9
0 0 3
0 1 0
0 2 3
1 0 0
1 1 3
1 2 3
2 0 3
2 1 0
2 2 0
2 37 81 0 9
0 0 0
0 1 2
0 2 2
1 0 0
1 1 2
1 2 0
2 0 3
2 1 0
2 2 2
2 3 93 0 9
0 0 0
0 1 3
0 2 0
1 0 1
1 1 0
1 2 2
2 0 3
2 1 0
2 2 1
2 14 79 0 9
0 0 0
0 1 1
0 2 0
1 0 0
1 1 2
1 2 3
2 0 1
2 1 3
2 2 0
2 2 57 0 9
0 0 0
0 1 3
0 2 3
1 0 2
1 1 1
1 2 1
2 0 0
2 1 0
2 2 0
2 74 99 0 9
0 0 1
0 1 0
0 2 2
1 0 0
1 1 0
1 2 0
2 0 1
2 1 1
2 2 3
1 0 512409557603043100 3
0 1
1 0
2 1
1 1 512409557603043100 3
0 3
1 0
2 3
1 2 512409557603043100 3
0 1
1 0
2 3
1 3 512409557603043100 3
0 0
1 2
2 1
1 4 512409557603043100 3
0 0
1 2
2 2
1 5 512409557603043100 3
0 0
1 1
2 1
1 6 512409557603043100 3
0 0
1 0
2 0
1 7 512409557603043100 3
0 3
1 0
2 3
1 8 512409557603043100 3
0 0
1 1
2 3
1 9 512409557603043100 3
0 3
1 0
2 0
1 10 512409557603043100 3
0 0
1 3
2 2
1 11 512409557603043100 3
0 0
1 3
2 0
1 12 512409557603043100 3
0 0
1 0
2 1
1 13 512409557603043100 3
0 1
1 1
2 0
1 14 512409557603043100 3
0 0
1 1
2 1
1 15 512409557603043100 3
0 3
1 0
2 1
1 16 512409557603043100 3
0 0
1 3
2 1
1 17 512409557603043100 3
0 1
1 0
2 0
1 18 512409557603043100 3
0 0
1 0
2 0
1 19 512409557603043100 3
0 0
1 2
2 0
1 20 512409557603043100 3
0 2
1 2
2 0
1 21 512409557603043100 3
0 0
1 1
2 3
1 22 512409557603043100 3
0 3
1 1
2 0
1 23 512409557603043100 3
0 3
1 2
2 0
1 24 512409557603043100 3
0 1
1 3
2 0
1 25 512409557603043100 3
0 3
1 2
2 0
1 26 512409557603043100 3
0 0
1 0
2 2
1 27 512409557603043100 3
0 0
1 0
2 0
1 28 512409557603043100 3
0 2
1 1
2 0
1 29 512409557603043100 3
0 2
1 2
2 0
1 30 512409557603043100 3
0 3
1 2
2 0
1 31 512409557603043100 3
0 0
1 1
2 3
1 32 512409557603043100 3
0 1
1 0
2 1
1 33 512409557603043100 3
0 0
1 0
2 1
1 34 512409557603043100 3
0 0
1 2
2 0
1 35 512409557603043100 3
0 1
1 0
2 1
1 36 512409557603043100 3
0 0
1 3
2 0
1 37 512409557603043100 3
0 0
1 1
2 2
1 38 512409557603043100 3
0 1
1 0
2 1
1 39 512409557603043100 3
0 0
1 1
2 2
1 40 512409557603043100 3
0 0
1 0
2 0
1 41 512409557603043100 3
0 2
1 2
2 0
1 42 512409557603043100 3
0 3
1 1
2 0
1 43 512409557603043100 3
0 1
1 2
2 0
1 44 512409557603043100 3
0 1
1 0
2 1
1 45 512409557603043100 3
0 2
1 2
2 0
1 46 512409557603043100 3
0 0
1 3
2 1
1 47 512409557603043100 3
0 2
1 0
2 0
1 48 512409557603043100 3
0 2
1 0
2 0
1 49 512409557603043100 3
0 1
1 0
2 1
1 50 512409557603043100 3
0 0
1 3
2 2
1 51 512409557603043100 3
0 2
1 0
2 3
1 52 512409557603043100 3
0 1
1 0
2 0
1 53 512409557603043100 3
0 2
1 1
2 0
1 54 512409557603043100 3
0 0
1 2
2 2
1 55 512409557603043100 3
0 2
1 0
2 0
1 56 512409557603043100 3
0 2
1 1
2 0
1 57 512409557603043100 3
0 1
1 0
2 1
1 58 512409557603043100 3
0 0
1 1
2 1
1 59 512409557603043100 3
0 0
1 2
2 2
1 60 512409557603043100 3
0 0
1 1
2 0
1 61 512409557603043100 3
0 2
1 1
2 0
1 62 512409557603043100 3
0 0
1 0
2 3
1 63 512409557603043100 3
0 0
1 0
2 0
1 64 512409557603043100 3
0 0
1 3
2 2
1 65 512409557603043100 3
0 0
1 0
2 2
1 66 512409557603043100 3
0 2
1 0
2 1
1 67 512409557603043100 3
0 2
1 0
2 2
1 68 512409557603043100 3
0 2
1 0
2 2
1 69 512409557603043100 3
0 2
1 2
2 0
1 70 512409557603043100 3
0 0
1 1
2 0
1 71 512409557603043100 3
0 1
1 1
2 0
1 72 512409557603043100 3
0 0
1 0
2 0
1 73 512409557603043100 3
0 0
1 0
2 1
1 74 512409557603043100 3
0 2
1 0
2 3
1 75 512409557603043100 3
0 2
1 0
2 2
1 76 512409557603043100 3
0 0
1 0
2 0
1 77 512409557603043100 3
0 1
1 0
2 1
1 78 512409557603043100 3
0 1
1 0
2 2
1 79 512409557603043100 3
0 0
1 0
2 0
1 80 512409557603043100 3
0 2
1 0
2 3
1 81 512409557603043100 3
0 0
1 0
2 0
1 82 512409557603043100 3
0 0
1 0
2 1
1 83 512409557603043100 3
0 0
1 0
2 0
1 84 512409557603043100 3
0 2
1 0
2 0
1 85 512409557603043100 3
0 0
1 0
2 1
1 86 512409557603043100 3
0 0
1 2
2 1
1 87 512409557603043100 3
0 0
1 2
2 2
1 88 512409557603043100 3
0 1
1 2
2 0
1 89 512409557603043100 3
0 0
1 3
2 0
1 90 512409557603043100 3
0 1
1 0
2 2
1 91 512409557603043100 3
0 0
1 0
2 0
1 92 512409557603043100 3
0 1
1 1
2 0
1 93 512409557603043100 3
0 0
1 2
2 2
1 94 512409557603043100 3
0 3
1 3
2 0
1 95 512409557603043100 3
0 2
1 2
2 0
1 96 512409557603043100 3
0 2
1 1
2 0
1 97 512409557603043100 3
0 2
1 0
2 0
1 98 512409557603043100 3
0 0
1 3
2 1
1 99 512409557603043100 3
0 0
1 0
2 1
0 65 0
